************************************************************************
file with basedata            : mm63_.bas
initial value random generator: 943036505
************************************************************************
projects                      :  1
jobs (incl. supersource/sink ):  12
horizon                       :  80
RESOURCES
  - renewable                 :  2   R
  - nonrenewable              :  2   N
  - doubly constrained        :  0   D
************************************************************************
PROJECT INFORMATION:
pronr.  #jobs rel.date duedate tardcost  MPM-Time
    1     10      0       15        2       15
************************************************************************
PRECEDENCE RELATIONS:
jobnr.    #modes  #successors   successors
   1        1          3           2   3   4
   2        3          1           7
   3        3          1           8
   4        3          3           5   6   7
   5        3          3           9  10  11
   6        3          1           8
   7        3          1           8
   8        3          2           9  10
   9        3          1          12
  10        3          1          12
  11        3          1          12
  12        1          0        
************************************************************************
REQUESTS/DURATIONS:
jobnr. mode duration  R 1  R 2  N 1  N 2
------------------------------------------------------------------------
  1      1     0       0    0    0    0
  2      1     5       5    7    6    6
         2     9       5    7    5    6
         3    10       4    7    5    5
  3      1     2       9    6    7    5
         2     3       9    5    6    4
         3     8       8    3    3    3
  4      1     1       2    9    5    7
         2     5       2    8    4    5
         3     7       2    3    2    1
  5      1     1       9    5    9    4
         2     3       8    5    6    3
         3     4       7    3    4    2
  6      1     1       9    3    3    5
         2     2       7    2    2    4
         3     8       3    2    1    3
  7      1     6       6    2    8    9
         2     6       4    2    9    9
         3     8       2    2    8    9
  8      1     2       7    8   10    6
         2     5       7    7    8    4
         3     9       4    4    7    4
  9      1     1       9    4    9    2
         2     5       8    4    9    1
         3    10       8    4    7    1
 10      1     2       9    7    7    7
         2     3       5    6    6    5
         3     9       4    5    5    4
 11      1     1       6    5    6    6
         2     7       4    3    5    5
         3     7       4    4    5    4
 12      1     0       0    0    0    0
************************************************************************
RESOURCEAVAILABILITIES:
  R 1  R 2  N 1  N 2
   32   22   64   51
************************************************************************
MAXIMAL LAGS:
from  to  type  delay
    1   12   ES      0
    1    2   ES      0
    2   12   ES      0
    1    3   ES      0
    3   12   ES      0
    1    4   ES      0
    4   12   ES      0
    1    5   ES      0
    5   12   ES      0
    1    6   ES      0
    6   12   ES      0
    1    7   ES      0
    7   12   ES      0
    1    8   ES      0
    8   12   ES      0
    1    9   ES      0
    9   12   ES      0
    1   10   ES      0
   10   12   ES      0
    1   11   ES      0
   11   12   ES      0
    1   12   ES      0
    2    7   SS     -2
    2    7   SE      0
    2    7   ES     -7
    2    7   EE     -4
    3    8   SS    -10
    3    8   SE      9
    3    8   ES      9
    3    8   EE     -2
    4    5   SS     -7
    4    5   SE      5
    4    5   ES     12
    4    5   EE     -2
    4    6   SS     11
    4    6   SE      3
    4    6   ES     -7
    4    6   EE     -2
    4    7   SS      0
    4    7   SE     -7
    4    7   ES      6
    4    7   EE     -7
    5    9   SS      0
    5    9   SE      6
    5    9   ES     -5
    5    9   EE     10
    5   10   SS     -5
    5   10   SE     -2
    5   10   ES      4
    5   10   EE      7
    5   11   SS      9
    5   11   SE     -1
    5   11   ES     -9
    5   11   EE     -5
    6    8   SS      4
    6    8   SE     -9
    6    8   ES      5
    6    8   EE     10
    7    8   SS      0
    7    8   SE     -1
    7    8   ES     -1
    7    8   EE    -12
    8    9   SS      8
    8    9   SE      3
    8    9   ES      4
    8    9   EE     -4
    8   10   SS      0
    8   10   SE      5
    8   10   ES     -2
    8   10   EE    -12
************************************************************************
